NAME : instances/clustered-mixed-tsp/instance-81.tsp
COMMENT : No Comment
TYPE : TSP
DIMENSION: 46
EDGE_WEIGHT_TYPE : EUC_2D
NODE_COORD_SECTION
1 657 -14 
2 182 632 
3 -88 695 
4 636 286 
5 566 859 
6 665 850 
7 810 166 
8 555 259 
9 585 -23 
10 747 58 
11 494 751 
12 558 -32 
13 665 994 
14 322 540 
15 322 585 
16 648 76 
17 639 238 
18 -70 713 
19 610 342 
20 182 902 
21 322 549 
22 531 193 
23 845 1066 
24 800 1021 
25 819 -68 
26 719 823 
27 755 1075 
28 593 1084 
29 575 751 
30 11 893 
31 537 250 
32 585 157 
33 558 58 
34 20 614 
35 493 468 
36 746 841 
37 675 184 
38 801 85 
39 495 247 
40 495 148 
41 349 693 
42 384 295 
43 738 67 
44 693 -86 
45 65 839 
46 38 794 
EOF
